26161
11440
28899
28270
31307
29724
27155
11415
3777
18212
18699
30175
16314
27264
10791
29268
29738
4234
32145
18359
17259
21122
672
4564
31120
4271
27484
3176
12971
31468
21531
23653
30878
2414
16224
24622
10723
8245
31361
13577
3743
10060
7541
5634
26061
2260
6478
22251
30643
7635
8676
15666
12941
22400
5843
13051
4179
15359
27842
16731
31885
4110
6280
8783
7662
30543
725
1925
24489
4237
10771
29279
25743
1046
21950
25788
7235
11470
13010
31208
32361
16759
9587
15622
1954
22886
22452
5831
28829
451
20274
3842
19809
23371
8203
22061
13818
15784
5569
15066
